n = 70;
costtab =
  [|1, 11, 70, -484,
   |1, 53, 70, -430,
   |1, 1, 1, 0,
   |2, 10, 12, -1031,
   |2, 10, 18, -1031,
   |2, 10, 29, -1031,
   |2, 10, 51, -1032,
   |2, 10, 59, -1031,
   |2, 10, 66, -1010,
   |2, 12, 10, -348,
   |2, 12, 18, -347,
   |2, 12, 29, -347,
   |2, 12, 51, -348,
   |2, 12, 59, -348,
   |2, 12, 66, -322,
   |2, 18, 10, -1161,
   |2, 18, 12, -1160,
   |2, 18, 29, -1162,
   |2, 18, 51, -1161,
   |2, 18, 59, -1161,
   |2, 18, 66, -1145,
   |2, 29, 10, -1577,
   |2, 29, 12, -1576,
   |2, 29, 18, -1578,
   |2, 29, 51, -1577,
   |2, 29, 59, -1578,
   |2, 29, 66, -1561,
   |2, 51, 10, -1265,
   |2, 51, 12, -1264,
   |2, 51, 18, -1264,
   |2, 51, 29, -1264,
   |2, 51, 59, -1264,
   |2, 51, 66, -1242,
   |2, 59, 10, -1941,
   |2, 59, 12, -1941,
   |2, 59, 18, -1941,
   |2, 59, 29, -1941,
   |2, 59, 51, -1941,
   |2, 59, 66, -1921,
   |2, 66, 10, -353,
   |2, 66, 12, -348,
   |2, 66, 18, -359,
   |2, 66, 29, -358,
   |2, 66, 51, -352,
   |2, 66, 59, -355,
   |2, 2, 2, 0,
   |3, 13, 23, -310,
   |3, 13, 54, -308,
   |3, 13, 62, -300,
   |3, 13, 67, -308,
   |3, 23, 13, -1089,
   |3, 23, 54, -1093,
   |3, 23, 62, -1070,
   |3, 23, 67, -1093,
   |3, 54, 13, -1342,
   |3, 54, 23, -1349,
   |3, 54, 62, -1330,
   |3, 54, 67, -1347,
   |3, 62, 13, -318,
   |3, 62, 23, -309,
   |3, 62, 54, -314,
   |3, 62, 67, -300,
   |3, 67, 13, -236,
   |3, 67, 23, -243,
   |3, 67, 54, -241,
   |3, 67, 62, -210,
   |3, 3, 3, 0,
   |4, 34, 43, -499,
   |4, 34, 47, -505,
   |4, 34, 57, -489,
   |4, 43, 34, -701,
   |4, 43, 47, -686,
   |4, 43, 57, -705,
   |4, 47, 34, -711,
   |4, 47, 43, -690,
   |4, 47, 57, -679,
   |4, 57, 34, -592,
   |4, 57, 43, -606,
   |4, 57, 47, -576,
   |4, 4, 4, 0,
   |5, 18, 29, -1009,
   |5, 18, 47, -1003,
   |5, 18, 52, -1001,
   |5, 29, 18, -735,
   |5, 29, 47, -730,
   |5, 29, 52, -731,
   |5, 47, 18, -740,
   |5, 47, 29, -742,
   |5, 47, 52, -730,
   |5, 52, 18, -455,
   |5, 52, 29, -458,
   |5, 52, 47, -447,
   |5, 5, 5, 0,
   |6, 24, 37, -469,
   |6, 24, 68, -469,
   |6, 37, 24, -564,
   |6, 37, 68, -556,
   |6, 68, 24, -350,
   |6, 68, 37, -342,
   |6, 6, 6, 0,
   |7, 31, 35, -564,
   |7, 31, 40, -556,
   |7, 31, 45, -551,
   |7, 31, 56, -557,
   |7, 31, 65, -566,
   |7, 35, 31, -635,
   |7, 35, 40, -634,
   |7, 35, 45, -608,
   |7, 35, 56, -631,
   |7, 35, 65, -638,
   |7, 40, 31, -727,
   |7, 40, 35, -735,
   |7, 40, 45, -719,
   |7, 40, 56, -722,
   |7, 40, 65, -731,
   |7, 45, 31, -319,
   |7, 45, 35, -306,
   |7, 45, 40, -316,
   |7, 45, 56, -299,
   |7, 45, 65, -307,
   |7, 56, 31, -407,
   |7, 56, 35, -411,
   |7, 56, 40, -401,
   |7, 56, 45, -381,
   |7, 56, 65, -413,
   |7, 65, 31, -519,
   |7, 65, 35, -521,
   |7, 65, 40, -513,
   |7, 65, 45, -491,
   |7, 65, 56, -516,
   |7, 70, 31, -631,
   |7, 70, 35, -649,
   |7, 70, 40, -657,
   |7, 70, 45, -649,
   |7, 70, 56, -656,
   |7, 70, 65, -645,
   |7, 7, 7, 0,
   |8, 46, 55, -249,
   |8, 55, 46, -195,
   |8, 8, 8, 0,
   |9, 23, 54, -442,
   |9, 23, 58, -453,
   |9, 54, 23, -257,
   |9, 54, 58, -267,
   |9, 58, 23, -1140,
   |9, 58, 54, -1138,
   |9, 9, 9, 0,
   |10, 2, 12, -1032,
   |10, 2, 23, -1019,
   |10, 2, 41, -1029,
   |10, 2, 54, -1019,
   |10, 2, 60, -1025,
   |10, 12, 2, -756,
   |10, 12, 23, -743,
   |10, 12, 41, -752,
   |10, 12, 54, -744,
   |10, 12, 60, -751,
   |10, 23, 2, -580,
   |10, 23, 12, -581,
   |10, 23, 41, -569,
   |10, 23, 54, -592,
   |10, 23, 60, -584,
   |10, 41, 2, -310,
   |10, 41, 12, -309,
   |10, 41, 23, -288,
   |10, 41, 54, -286,
   |10, 41, 60, -298,
   |10, 54, 2, -961,
   |10, 54, 12, -962,
   |10, 54, 23, -973,
   |10, 54, 41, -947,
   |10, 54, 60, -968,
   |10, 60, 2, -611,
   |10, 60, 12, -613,
   |10, 60, 23, -608,
   |10, 60, 41, -603,
   |10, 60, 54, -613,
   |10, 10, 10, 0,
   |11, 27, 1, -570,
   |11, 27, 38, -582,
   |11, 27, 41, -585,
   |11, 27, 69, -549,
   |11, 38, 1, -346,
   |11, 38, 27, -344,
   |11, 38, 41, -341,
   |11, 38, 69, -332,
   |11, 41, 1, -501,
   |11, 41, 27, -524,
   |11, 41, 38, -519,
   |11, 41, 69, -508,
   |11, 69, 1, -600,
   |11, 69, 27, -572,
   |11, 69, 38, -593,
   |11, 69, 41, -592,
   |11, 11, 11, 0,
   |12, 2, 10, -310,
   |12, 2, 44, -331,
   |12, 2, 51, -307,
   |12, 10, 2, -717,
   |12, 10, 44, -749,
   |12, 10, 51, -756,
   |12, 44, 2, -385,
   |12, 44, 10, -395,
   |12, 44, 51, -394,
   |12, 51, 2, -939,
   |12, 51, 10, -980,
   |12, 51, 44, -972,
   |12, 12, 12, 0,
   |13, 3, 17, -312,
   |13, 3, 67, -312,
   |13, 17, 3, -611,
   |13, 17, 67, -616,
   |13, 67, 3, -304,
   |13, 67, 17, -308,
   |13, 13, 13, 0,
   |14, 19, 25, -515,
   |14, 19, 43, -520,
   |14, 25, 19, -754,
   |14, 25, 43, -761,
   |14, 43, 19, -466,
   |14, 43, 25, -468,
   |14, 14, 14, 0,
   |15, 15, 15, 0,
   |16, 49, 56, -286,
   |16, 56, 49, -479,
   |16, 70, 49, -365,
   |16, 70, 56, -363,
   |16, 16, 16, 0,
   |17, 13, 61, -588,
   |17, 13, 67, -616,
   |17, 61, 13, -250,
   |17, 61, 67, -252,
   |17, 67, 13, -360,
   |17, 67, 61, -333,
   |17, 17, 17, 0,
   |18, 2, 5, -1133,
   |18, 2, 23, -1151,
   |18, 2, 29, -1121,
   |18, 2, 44, -1162,
   |18, 2, 54, -1149,
   |18, 2, 59, -1129,
   |18, 2, 67, -1154,
   |18, 5, 2, -981,
   |18, 5, 23, -998,
   |18, 5, 29, -1007,
   |18, 5, 44, -976,
   |18, 5, 54, -1001,
   |18, 5, 59, -1009,
   |18, 5, 67, -976,
   |18, 23, 2, -408,
   |18, 23, 5, -406,
   |18, 23, 29, -405,
   |18, 23, 44, -406,
   |18, 23, 54, -418,
   |18, 23, 59, -408,
   |18, 23, 67, -409,
   |18, 29, 2, -448,
   |18, 29, 5, -485,
   |18, 29, 23, -475,
   |18, 29, 44, -446,
   |18, 29, 54, -477,
   |18, 29, 59, -487,
   |18, 29, 67, -467,
   |18, 44, 2, -707,
   |18, 44, 5, -673,
   |18, 44, 23, -695,
   |18, 44, 29, -664,
   |18, 44, 54, -692,
   |18, 44, 59, -670,
   |18, 44, 67, -701,
   |18, 54, 2, -862,
   |18, 54, 5, -865,
   |18, 54, 23, -874,
   |18, 54, 29, -863,
   |18, 54, 44, -860,
   |18, 54, 59, -867,
   |18, 54, 67, -862,
   |18, 59, 2, -918,
   |18, 59, 5, -950,
   |18, 59, 23, -941,
   |18, 59, 29, -949,
   |18, 59, 44, -913,
   |18, 59, 54, -943,
   |18, 59, 67, -924,
   |18, 67, 2, -954,
   |18, 67, 5, -928,
   |18, 67, 23, -953,
   |18, 67, 29, -940,
   |18, 67, 44, -956,
   |18, 67, 54, -949,
   |18, 67, 59, -936,
   |18, 18, 18, 0,
   |19, 14, 28, -499,
   |19, 14, 43, -518,
   |19, 28, 14, -596,
   |19, 28, 43, -613,
   |19, 43, 14, -392,
   |19, 43, 28, -391,
   |19, 19, 19, 0,
   |20, 42, 65, -276,
   |20, 65, 42, -296,
   |20, 20, 20, 0,
   |21, 53, 66, -314,
   |21, 53, 69, -343,
   |21, 66, 53, -704,
   |21, 66, 69, -728,
   |21, 69, 53, -278,
   |21, 69, 66, -272,
   |21, 21, 21, 0,
   |22, 36, 49, -376,
   |22, 36, 56, -364,
   |22, 49, 36, -626,
   |22, 49, 56, -644,
   |22, 56, 36, -379,
   |22, 56, 49, -409,
   |22, 70, 36, -633,
   |22, 70, 49, -639,
   |22, 70, 56, -630,
   |22, 22, 22, 0,
   |23, 3, 9, -1073,
   |23, 3, 10, -1073,
   |23, 3, 18, -1080,
   |23, 3, 54, -1072,
   |23, 3, 67, -1094,
   |23, 9, 3, -436,
   |23, 9, 10, -424,
   |23, 9, 18, -424,
   |23, 9, 54, -455,
   |23, 9, 67, -434,
   |23, 10, 3, -572,
   |23, 10, 9, -560,
   |23, 10, 18, -591,
   |23, 10, 54, -564,
   |23, 10, 67, -574,
   |23, 18, 3, -404,
   |23, 18, 9, -385,
   |23, 18, 10, -415,
   |23, 18, 54, -377,
   |23, 18, 67, -405,
   |23, 54, 3, -498,
   |23, 54, 9, -519,
   |23, 54, 10, -491,
   |23, 54, 18, -479,
   |23, 54, 67, -497,
   |23, 67, 3, -920,
   |23, 67, 9, -897,
   |23, 67, 10, -900,
   |23, 67, 18, -907,
   |23, 67, 54, -896,
   |23, 23, 23, 0,
   |24, 6, 68, -468,
   |24, 68, 6, -316,
   |24, 24, 24, 0,
   |25, 14, 34, -732,
   |25, 14, 39, -757,
   |25, 14, 57, -756,
   |25, 14, 62, -756,
   |25, 34, 14, -477,
   |25, 34, 39, -486,
   |25, 34, 57, -497,
   |25, 34, 62, -484,
   |25, 39, 14, -471,
   |25, 39, 34, -454,
   |25, 39, 57, -471,
   |25, 39, 62, -476,
   |25, 57, 14, -815,
   |25, 57, 34, -810,
   |25, 57, 39, -816,
   |25, 57, 62, -814,
   |25, 62, 14, -812,
   |25, 62, 34, -794,
   |25, 62, 39, -818,
   |25, 62, 57, -811,
   |25, 25, 25, 0,
   |26, 30, 41, -435,
   |26, 30, 44, -431,
   |26, 41, 30, -731,
   |26, 41, 44, -728,
   |26, 44, 30, -470,
   |26, 44, 41, -470,
   |26, 26, 26, 0,
   |27, 11, 63, -576,
   |27, 63, 11, -458,
   |27, 27, 27, 0,
   |28, 19, 31, -584,
   |28, 19, 46, -619,
   |28, 31, 19, -442,
   |28, 31, 46, -454,
   |28, 46, 19, -600,
   |28, 46, 31, -578,
   |28, 28, 28, 0,
   |29, 2, 5, -1556,
   |29, 2, 18, -1577,
   |29, 2, 44, -1578,
   |29, 2, 47, -1562,
   |29, 2, 59, -1550,
   |29, 5, 2, -714,
   |29, 5, 18, -713,
   |29, 5, 44, -711,
   |29, 5, 47, -728,
   |29, 5, 59, -734,
   |29, 18, 2, -488,
   |29, 18, 5, -465,
   |29, 18, 44, -488,
   |29, 18, 47, -468,
   |29, 18, 59, -456,
   |29, 44, 2, -1133,
   |29, 44, 5, -1109,
   |29, 44, 18, -1133,
   |29, 44, 47, -1115,
   |29, 44, 59, -1102,
   |29, 47, 2, -664,
   |29, 47, 5, -672,
   |29, 47, 18, -659,
   |29, 47, 44, -662,
   |29, 47, 59, -675,
   |29, 59, 2, -549,
   |29, 59, 5, -575,
   |29, 59, 18, -544,
   |29, 59, 44, -545,
   |29, 59, 47, -572,
   |29, 29, 29, 0,
   |30, 26, 41, -390,
   |30, 26, 44, -425,
   |30, 26, 60, -422,
   |30, 41, 26, -304,
   |30, 41, 44, -332,
   |30, 41, 60, -333,
   |30, 44, 26, -356,
   |30, 44, 41, -349,
   |30, 44, 60, -339,
   |30, 60, 26, -562,
   |30, 60, 41, -559,
   |30, 60, 44, -548,
   |30, 30, 30, 0,
   |31, 7, 28, -556,
   |31, 7, 55, -564,
   |31, 28, 7, -466,
   |31, 28, 55, -473,
   |31, 55, 7, -691,
   |31, 55, 28, -689,
   |31, 31, 31, 0,
   |32, 52, 59, -448,
   |32, 59, 52, -867,
   |32, 32, 32, 0,
   |33, 58, 61, -224,
   |33, 61, 58, -595,
   |33, 33, 33, 0,
   |34, 4, 25, -493,
   |34, 4, 57, -507,
   |34, 25, 4, -492,
   |34, 25, 57, -500,
   |34, 57, 4, -877,
   |34, 57, 25, -872,
   |34, 34, 34, 0,
   |35, 7, 40, -628,
   |35, 7, 52, -610,
   |35, 7, 65, -635,
   |35, 40, 7, -576,
   |35, 40, 52, -574,
   |35, 40, 65, -561,
   |35, 52, 7, -564,
   |35, 52, 40, -580,
   |35, 52, 65, -561,
   |35, 65, 7, -252,
   |35, 65, 40, -231,
   |35, 65, 52, -224,
   |35, 35, 35, 0,
   |36, 22, 50, -372,
   |36, 50, 22, -567,
   |36, 36, 36, 0,
   |37, 37, 37, 0,
   |38, 11, 63, -346,
   |38, 63, 11, -826,
   |38, 38, 38, 0,
   |39, 39, 39, 0,
   |40, 7, 35, -734,
   |40, 7, 48, -728,
   |40, 7, 59, -724,
   |40, 7, 65, -736,
   |40, 35, 7, -581,
   |40, 35, 48, -585,
   |40, 35, 59, -584,
   |40, 35, 65, -586,
   |40, 48, 7, -646,
   |40, 48, 35, -656,
   |40, 48, 59, -656,
   |40, 48, 65, -654,
   |40, 59, 7, -882,
   |40, 59, 35, -894,
   |40, 59, 48, -896,
   |40, 59, 65, -892,
   |40, 65, 7, -713,
   |40, 65, 35, -716,
   |40, 65, 48, -713,
   |40, 65, 59, -711,
   |40, 40, 40, 0,
   |41, 10, 11, -284,
   |41, 10, 26, -301,
   |41, 10, 30, -303,
   |41, 10, 51, -312,
   |41, 10, 60, -305,
   |41, 11, 10, -501,
   |41, 11, 26, -507,
   |41, 11, 30, -505,
   |41, 11, 51, -505,
   |41, 11, 60, -517,
   |41, 26, 10, -720,
   |41, 26, 11, -709,
   |41, 26, 30, -731,
   |41, 26, 51, -715,
   |41, 26, 60, -725,
   |41, 30, 10, -340,
   |41, 30, 11, -325,
   |41, 30, 26, -349,
   |41, 30, 51, -335,
   |41, 30, 60, -344,
   |41, 51, 10, -531,
   |41, 51, 11, -508,
   |41, 51, 26, -515,
   |41, 51, 30, -517,
   |41, 51, 60, -522,
   |41, 60, 10, -670,
   |41, 60, 11, -666,
   |41, 60, 26, -672,
   |41, 60, 30, -672,
   |41, 60, 51, -669,
   |41, 41, 41, 0,
   |42, 20, 48, -305,
   |42, 20, 65, -314,
   |42, 48, 20, -288,
   |42, 48, 65, -290,
   |42, 65, 20, -585,
   |42, 65, 48, -578,
   |42, 42, 42, 0,
   |43, 4, 14, -679,
   |43, 4, 19, -703,
   |43, 14, 4, -437,
   |43, 14, 19, -459,
   |43, 19, 4, -390,
   |43, 19, 14, -388,
   |43, 43, 43, 0,
   |44, 12, 18, -379,
   |44, 12, 26, -390,
   |44, 12, 29, -379,
   |44, 12, 30, -390,
   |44, 12, 59, -384,
   |44, 18, 12, -684,
   |44, 18, 26, -698,
   |44, 18, 29, -707,
   |44, 18, 30, -705,
   |44, 18, 59, -706,
   |44, 26, 12, -462,
   |44, 26, 18, -465,
   |44, 26, 29, -467,
   |44, 26, 30, -467,
   |44, 26, 59, -469,
   |44, 29, 12, -1110,
   |44, 29, 18, -1133,
   |44, 29, 26, -1126,
   |44, 29, 30, -1131,
   |44, 29, 59, -1133,
   |44, 30, 12, -354,
   |44, 30, 18, -364,
   |44, 30, 26, -359,
   |44, 30, 29, -364,
   |44, 30, 59, -365,
   |44, 59, 12, -1538,
   |44, 59, 18, -1556,
   |44, 59, 26, -1552,
   |44, 59, 29, -1556,
   |44, 59, 30, -1556,
   |44, 44, 44, 0,
   |45, 45, 45, 0,
   |46, 8, 28, -268,
   |46, 28, 8, -590,
   |46, 46, 46, 0,
   |47, 4, 5, -700,
   |47, 4, 29, -713,
   |47, 4, 65, -710,
   |47, 5, 4, -732,
   |47, 5, 29, -740,
   |47, 5, 65, -738,
   |47, 29, 4, -677,
   |47, 29, 5, -672,
   |47, 29, 65, -673,
   |47, 65, 4, -985,
   |47, 65, 5, -981,
   |47, 65, 29, -983,
   |47, 47, 47, 0,
   |48, 40, 42, -636,
   |48, 40, 52, -636,
   |48, 42, 40, -276,
   |48, 42, 52, -286,
   |48, 52, 40, -266,
   |48, 52, 42, -276,
   |48, 48, 48, 0,
   |49, 16, 22, -289,
   |49, 16, 56, -281,
   |49, 22, 16, -643,
   |49, 22, 56, -645,
   |49, 56, 16, -433,
   |49, 56, 22, -443,
   |49, 70, 16, -551,
   |49, 70, 22, -545,
   |49, 70, 56, -536,
   |49, 49, 49, 0,
   |50, 15, 36, -709,
   |50, 15, 64, -710,
   |50, 36, 15, -589,
   |50, 36, 64, -583,
   |50, 64, 15, -647,
   |50, 64, 36, -641,
   |50, 50, 50, 0,
   |51, 2, 12, -1265,
   |51, 2, 41, -1264,
   |51, 2, 59, -1236,
   |51, 2, 60, -1261,
   |51, 12, 2, -980,
   |51, 12, 41, -979,
   |51, 12, 59, -953,
   |51, 12, 60, -977,
   |51, 41, 2, -531,
   |51, 41, 12, -530,
   |51, 41, 59, -497,
   |51, 41, 60, -524,
   |51, 59, 2, -900,
   |51, 59, 12, -901,
   |51, 59, 41, -894,
   |51, 59, 60, -910,
   |51, 60, 2, -706,
   |51, 60, 12, -707,
   |51, 60, 41, -702,
   |51, 60, 59, -691,
   |51, 51, 51, 0,
   |52, 5, 32, -435,
   |52, 5, 35, -441,
   |52, 5, 48, -441,
   |52, 5, 59, -459,
   |52, 32, 5, -420,
   |52, 32, 35, -424,
   |52, 32, 48, -424,
   |52, 32, 59, -399,
   |52, 35, 5, -570,
   |52, 35, 32, -569,
   |52, 35, 48, -593,
   |52, 35, 59, -585,
   |52, 48, 5, -266,
   |52, 48, 32, -264,
   |52, 48, 35, -287,
   |52, 48, 59, -280,
   |52, 59, 5, -464,
   |52, 59, 32, -420,
   |52, 59, 35, -461,
   |52, 59, 48, -461,
   |52, 52, 52, 0,
   |53, 21, 1, -325,
   |53, 21, 69, -348,
   |53, 69, 1, -321,
   |53, 69, 21, -349,
   |53, 53, 53, 0,
   |54, 3, 9, -1341,
   |54, 3, 10, -1340,
   |54, 3, 18, -1344,
   |54, 3, 23, -1345,
   |54, 3, 58, -1344,
   |54, 3, 65, -1337,
   |54, 9, 3, -264,
   |54, 9, 10, -262,
   |54, 9, 18, -266,
   |54, 9, 23, -266,
   |54, 9, 58, -250,
   |54, 9, 65, -272,
   |54, 10, 3, -964,
   |54, 10, 9, -963,
   |54, 10, 18, -973,
   |54, 10, 23, -972,
   |54, 10, 58, -967,
   |54, 10, 65, -963,
   |54, 18, 3, -868,
   |54, 18, 9, -868,
   |54, 18, 10, -873,
   |54, 18, 23, -874,
   |54, 18, 58, -866,
   |54, 18, 65, -867,
   |54, 23, 3, -516,
   |54, 23, 9, -513,
   |54, 23, 10, -519,
   |54, 23, 18, -520,
   |54, 23, 58, -514,
   |54, 23, 65, -512,
   |54, 58, 3, -1029,
   |54, 58, 9, -1012,
   |54, 58, 10, -1028,
   |54, 58, 18, -1026,
   |54, 58, 23, -1028,
   |54, 58, 65, -1007,
   |54, 65, 3, -1419,
   |54, 65, 9, -1431,
   |54, 65, 10, -1420,
   |54, 65, 18, -1424,
   |54, 65, 23, -1423,
   |54, 65, 58, -1404,
   |54, 54, 54, 0,
   |55, 8, 31, -201,
   |55, 31, 8, -670,
   |55, 55, 55, 0,
   |56, 7, 16, -411,
   |56, 7, 22, -393,
   |56, 7, 49, -416,
   |56, 16, 7, -479,
   |56, 16, 22, -477,
   |56, 16, 49, -484,
   |56, 22, 7, -386,
   |56, 22, 16, -402,
   |56, 22, 49, -392,
   |56, 49, 7, -443,
   |56, 49, 16, -443,
   |56, 49, 22, -426,
   |56, 70, 7, -726,
   |56, 70, 16, -732,
   |56, 70, 22, -727,
   |56, 70, 49, -729,
   |56, 56, 56, 0,
   |57, 4, 25, -606,
   |57, 4, 34, -611,
   |57, 25, 4, -815,
   |57, 25, 34, -819,
   |57, 34, 4, -878,
   |57, 34, 25, -878,
   |57, 57, 57, 0,
   |58, 9, 33, -1138,
   |58, 9, 54, -1143,
   |58, 9, 66, -1111,
   |58, 33, 9, -240,
   |58, 33, 54, -240,
   |58, 33, 66, -222,
   |58, 54, 9, -1034,
   |58, 54, 33, -1029,
   |58, 54, 66, -997,
   |58, 66, 9, -477,
   |58, 66, 33, -486,
   |58, 66, 54, -472,
   |58, 58, 58, 0,
   |59, 2, 18, -1941,
   |59, 2, 29, -1939,
   |59, 2, 32, -1926,
   |59, 2, 40, -1931,
   |59, 2, 44, -1941,
   |59, 2, 51, -1940,
   |59, 2, 52, -1926,
   |59, 18, 2, -950,
   |59, 18, 29, -950,
   |59, 18, 32, -940,
   |59, 18, 40, -945,
   |59, 18, 44, -950,
   |59, 18, 51, -949,
   |59, 18, 52, -940,
   |59, 29, 2, -573,
   |59, 29, 18, -576,
   |59, 29, 32, -567,
   |59, 29, 40, -574,
   |59, 29, 44, -575,
   |59, 29, 51, -573,
   |59, 29, 52, -567,
   |59, 32, 2, -851,
   |59, 32, 18, -856,
   |59, 32, 29, -858,
   |59, 32, 40, -860,
   |59, 32, 44, -853,
   |59, 32, 51, -859,
   |59, 32, 52, -867,
   |59, 40, 2, -887,
   |59, 40, 18, -892,
   |59, 40, 29, -895,
   |59, 40, 32, -890,
   |59, 40, 44, -889,
   |59, 40, 51, -887,
   |59, 40, 52, -891,
   |59, 44, 2, -1556,
   |59, 44, 18, -1556,
   |59, 44, 29, -1555,
   |59, 44, 32, -1543,
   |59, 44, 40, -1549,
   |59, 44, 51, -1555,
   |59, 44, 52, -1543,
   |59, 51, 2, -927,
   |59, 51, 18, -927,
   |59, 51, 29, -925,
   |59, 51, 32, -921,
   |59, 51, 40, -919,
   |59, 51, 44, -927,
   |59, 51, 52, -921,
   |59, 52, 2, -453,
   |59, 52, 18, -458,
   |59, 52, 29, -460,
   |59, 52, 32, -469,
   |59, 52, 40, -462,
   |59, 52, 44, -455,
   |59, 52, 51, -461,
   |59, 59, 59, 0,
   |60, 10, 30, -616,
   |60, 10, 41, -617,
   |60, 10, 51, -617,
   |60, 30, 10, -573,
   |60, 30, 41, -573,
   |60, 30, 51, -569,
   |60, 41, 10, -677,
   |60, 41, 30, -676,
   |60, 41, 51, -674,
   |60, 51, 10, -709,
   |60, 51, 30, -704,
   |60, 51, 41, -706,
   |60, 60, 60, 0,
   |61, 17, 33, -271,
   |61, 17, 67, -276,
   |61, 33, 17, -608,
   |61, 33, 67, -599,
   |61, 67, 17, -524,
   |61, 67, 33, -510,
   |61, 61, 61, 0,
   |62, 3, 25, -315,
   |62, 25, 3, -800,
   |62, 62, 62, 0,
   |63, 27, 38, -469,
   |63, 38, 27, -829,
   |63, 63, 63, 0,
   |64, 64, 64, 0,
   |65, 7, 20, -500,
   |65, 7, 35, -498,
   |65, 7, 40, -512,
   |65, 7, 42, -501,
   |65, 7, 47, -487,
   |65, 7, 54, -491,
   |65, 20, 7, -313,
   |65, 20, 35, -327,
   |65, 20, 40, -321,
   |65, 20, 42, -334,
   |65, 20, 47, -321,
   |65, 20, 54, -320,
   |65, 35, 7, -233,
   |65, 35, 20, -249,
   |65, 35, 40, -253,
   |65, 35, 42, -251,
   |65, 35, 47, -253,
   |65, 35, 54, -253,
   |65, 40, 7, -707,
   |65, 40, 20, -703,
   |65, 40, 35, -713,
   |65, 40, 42, -706,
   |65, 40, 47, -706,
   |65, 40, 54, -708,
   |65, 42, 7, -565,
   |65, 42, 20, -585,
   |65, 42, 35, -580,
   |65, 42, 40, -575,
   |65, 42, 47, -573,
   |65, 42, 54, -573,
   |65, 47, 7, -955,
   |65, 47, 20, -976,
   |65, 47, 35, -986,
   |65, 47, 40, -979,
   |65, 47, 42, -977,
   |65, 47, 54, -989,
   |65, 54, 7, -1401,
   |65, 54, 20, -1417,
   |65, 54, 35, -1429,
   |65, 54, 40, -1423,
   |65, 54, 42, -1419,
   |65, 54, 47, -1431,
   |65, 65, 65, 0,
   |66, 2, 21, -372,
   |66, 2, 58, -369,
   |66, 21, 2, -740,
   |66, 21, 58, -729,
   |66, 58, 2, -504,
   |66, 58, 21, -496,
   |66, 66, 66, 0,
   |67, 3, 13, -234,
   |67, 3, 17, -221,
   |67, 3, 18, -204,
   |67, 3, 23, -206,
   |67, 3, 61, -228,
   |67, 13, 3, -299,
   |67, 13, 17, -262,
   |67, 13, 18, -295,
   |67, 13, 23, -292,
   |67, 13, 61, -265,
   |67, 17, 3, -337,
   |67, 17, 13, -314,
   |67, 17, 18, -345,
   |67, 17, 23, -348,
   |67, 17, 61, -359,
   |67, 18, 3, -923,
   |67, 18, 13, -949,
   |67, 18, 17, -947,
   |67, 18, 23, -961,
   |67, 18, 61, -940,
   |67, 23, 3, -882,
   |67, 23, 13, -904,
   |67, 23, 17, -908,
   |67, 23, 18, -919,
   |67, 23, 61, -901,
   |67, 61, 3, -510,
   |67, 61, 13, -483,
   |67, 61, 17, -525,
   |67, 61, 18, -504,
   |67, 61, 23, -507,
   |67, 67, 67, 0,
   |68, 6, 24, -337,
   |68, 24, 6, -304,
   |68, 68, 68, 0,
   |69, 11, 21, -611,
   |69, 11, 53, -609,
   |69, 21, 11, -284,
   |69, 21, 53, -278,
   |69, 53, 11, -350,
   |69, 53, 21, -345,
   |69, 69, 69, 0,
   |];

